8272
36, 49, 32, 1, 22, 23, 30, 2, 7, 42, 21, 17, 3, 41, 8, 9, 10, 19, 45, 18, 31, 20, 50, 29, 16, 46, 44, 34, 35, 39, 40, 38, 5, 6, 4, 25, 12, 28, 27, 26, 47, 13, 14, 52, 11, 51, 33, 43, 15, 24, 48, 37
